
  22   10
  10   10   10   10   10   10   10   10   10   10

   0   0   0   0   0   0   0   0   0   0   0   1 2 
   2   0   0   0   0   0  10   0   0   0   0   2 13 3 
   8   0   0  10   0   0   0   0   0   0   0   2 10 4 
   6   0   0   0   0   0   0   0  10   0   0   1 5 
   5   0   0   0   0   0   0   0   0   0  10   1 6 
   8   0  10   0   0   0   0   0   0   0   0   1 7 
   2   0   0   0  10   0   0   0   0   0   0   1 8 
   5   0   0   0   0   0   0  10   0   0   0   1 9 
   1   0   0   0  10   0   0   0   0   0   0   1 11 
   2   0   0   0   0   0   0   0  10   0   0   1 11 
   5   0   0   0   0   0   0  10   0   0   0   1 12 
   6   0   0   0   0   0   0   0   0  10   0   1 14 
   6   0   0   0  10   0   0   0   0   0   0   1 14 
   9   0   0   0   0   0   0   0  10   0   0   1 15 
   8   0   0   0   0  10   0   0   0   0   0   1 16 
   4   0  10   0   0   0   0   0   0   0   0   1 17 
   6   0   0   0   0   0  10   0   0   0   0   1 18 
   8   0   0   0   0   0   0   0   0   0  10   1 19 
   7   0   0   0   0   0   0   0   0   0  10   1 20 
   4   0   0   0   0  10   0   0   0   0   0   1 21 
   1   0   0   0   0   0   0   0   0   0  10   1 22
   0   0   0   0   0   0   0   0   0   0   0   0 
